120
150
60
60
53
49
49
53
49
51
55
48
50
45
51
46
58
55
44
50
45
50
51
46
53
56
49
56
41
52
53
49
42
51
48
42
57
59
42
56
49
52
53
57
60
60
56
42
40
49
53
45
52
45
51
59
55
55
44
49
57
55
50
57
51
55
40
49
49
55
45
48
57
57
42
49
40
49
50
46
51
50
44
56
60
60
44
51
45
56
49
60
47
54
43
49
52
57
56
54
41
40
51
41
53
51
58
56
46
46
52
41
51
50
51
42
49
45
54
43
53
54
